NAME : rcdp204
TYPE : VRPSPDTW
DIMENSION : 101
VEHICLES : 3
CAPACITY : 1000
EDGE_WEIGHT_TYPE : EXACT_2D
NODE_COORD_SECTION
1 40 50
2 25 85
3 22 75
4 22 85
5 20 80
6 20 85
7 18 75
8 15 75
9 15 80
10 10 35
11 10 40
12 8 40
13 8 45
14 5 35
15 5 45
16 2 40
17 0 40
18 0 45
19 44 5
20 42 10
21 42 15
22 40 5
23 40 15
24 38 5
25 38 15
26 35 5
27 95 30
28 95 35
29 92 30
30 90 35
31 88 30
32 88 35
33 87 30
34 85 25
35 85 35
36 67 85
37 65 85
38 65 82
39 62 80
40 60 80
41 60 85
42 58 75
43 55 80
44 55 85
45 55 82
46 20 82
47 18 80
48 2 45
49 42 5
50 42 12
51 72 35
52 55 20
53 25 30
54 20 50
55 55 60
56 30 60
57 50 35
58 30 25
59 15 10
60 10 20
61 15 60
62 45 65
63 65 35
64 65 20
65 45 30
66 35 40
67 41 37
68 64 42
69 40 60
70 31 52
71 35 69
72 65 55
73 63 65
74 2 60
75 20 20
76 5 5
77 60 12
78 23 3
79 8 56
80 6 68
81 47 47
82 49 58
83 27 43
84 37 31
85 57 29
86 63 23
87 21 24
88 12 24
89 24 58
90 67 5
91 37 47
92 49 42
93 53 43
94 61 52
95 57 48
96 56 37
97 55 54
98 4 18
99 26 52
100 26 35
101 31 67
PICKUP_AND_DELIVERY_SECTION
1 0 0 960 0 0 0
2 0 0 911 10 20 20
3 0 0 919 10 30 30
4 0 0 910 10 40 10
5 0 644 764 10 30 40
6 0 0 909 10 10 20
7 0 0 916 10 10 20
8 0 0 914 10 10 20
9 0 367 487 10 40 10
10 0 371 491 10 10 20
11 0 0 918 10 10 30
12 0 195 315 10 20 40
13 0 0 917 10 20 20
14 0 653 773 10 10 10
15 0 0 914 10 30 10
16 0 174 294 10 20 20
17 0 0 908 10 10 20
18 0 0 909 10 30 20
19 0 0 904 10 30 20
20 0 0 909 10 20 40
21 0 0 914 10 10 10
22 0 0 905 10 30 10
23 0 0 915 10 10 40
24 0 201 321 10 10 30
25 0 0 914 10 10 10
26 0 784 904 10 20 20
27 0 0 891 10 20 30
28 0 0 892 10 20 20
29 0 0 894 10 20 10
30 0 0 897 10 10 10
31 0 0 898 10 10 10
32 0 0 899 10 10 20
33 0 0 898 10 20 10
34 0 0 898 10 30 10
35 0 0 902 10 10 30
36 0 0 905 10 20 20
37 0 0 906 10 40 40
38 0 0 909 10 20 10
39 0 278 398 10 10 30
40 0 0 913 10 40 10
41 0 0 909 10 10 30
42 0 0 919 10 10 20
43 0 0 916 10 10 10
44 0 0 911 10 10 20
45 0 217 337 10 10 10
46 0 0 912 10 20 10
47 0 0 912 10 20 10
48 0 0 911 10 30 10
49 0 0 904 10 20 10
50 0 0 911 10 20 10
51 0 0 914 10 40 30
52 0 0 916 10 27 19
53 0 0 925 10 3 3
54 0 375 495 10 5 5
55 0 0 931 10 19 16
56 0 599 719 10 0 16
57 0 0 931 10 26 19
58 0 0 923 10 19 23
59 0 782 902 10 13 20
60 0 0 907 10 13 19
61 0 0 923 10 6 17
62 0 0 934 10 2 9
63 0 167 287 10 10 3
64 0 0 910 10 2 6
65 0 0 929 10 2 17
66 0 0 938 10 23 16
67 0 0 936 10 7 16
68 0 268 388 10 11 9
69 0 0 940 10 23 21
70 0 157 277 10 22 27
71 0 0 930 10 6 23
72 0 0 924 10 15 14
73 0 0 922 10 13 8
74 0 0 910 10 11 5
75 0 645 765 10 1 8
76 0 0 892 10 9 16
77 0 268 388 10 6 31
78 0 764 884 10 4 7
79 0 0 917 10 10 27
80 0 352 472 10 10 30
81 0 0 942 10 7 13
82 0 0 937 10 10 10
83 0 0 935 10 14 9
84 0 0 930 10 3 14
85 0 395 515 10 9 18
86 0 0 914 10 9 2
87 0 0 917 10 12 28
88 0 359 479 10 7 13
89 0 0 932 10 32 19
90 0 0 897 10 9 25
91 0 0 945 10 14 6
92 0 0 937 10 21 13
93 0 14 134 10 4 14
94 0 0 928 10 8 3
95 0 0 932 10 15 23
96 0 0 929 10 3 6
97 0 0 934 10 21 26
98 0 0 901 10 26 35
99 0 0 935 10 14 9
100 0 308 428 10 14 15
101 0 810 930 10 4 3
DEPOT_SECTION
1 
-1
